 200 29 
 34 3 94 87 69 93 5 96 16 4 13 55 
 42 92 30 50 75 90 2 95 29 47 28 56 
 85 59 89 24 92 
 10 
 1 3 5 9 12 13 14 15 22 27 
 29 
 1 2 3 4 5 6 7 8 9 10 11 12 
 13 14 15 16 17 18 19 20 21 22 23 24 
 25 26 27 28 29 
 15 
 1 3 4 5 6 8 9 11 12 17 19 20 
 27 28 29 
 12 
 2 3 5 6 9 11 12 15 18 21 24 25 
 16 
 4 5 9 10 11 12 13 14 19 20 22 23 
 24 26 27 28 
 8 
 1 11 14 15 23 27 28 29 
 28 
 1 2 3 4 5 6 7 8 9 10 11 12 
 13 14 15 17 18 19 20 21 22 23 24 25 
 26 27 28 29 
 5 
 3 15 19 21 25 
 9 
 5 6 7 9 11 14 20 27 29 
 2 
 4 22 
 25 
 2 3 4 5 6 7 8 9 10 12 13 14 
 15 16 17 19 21 22 23 24 25 26 27 28 
 29 
 14 
 3 4 8 9 10 12 13 15 17 18 22 23 
 25 26 
 28 
 1 2 3 4 5 6 7 8 9 10 12 13 
 14 15 16 17 18 19 20 21 22 23 24 25 
 26 27 28 29 
 26 
 2 3 4 5 7 8 9 10 11 12 13 14 
 15 16 17 18 20 21 22 23 24 25 26 27 
 28 29 
 6 
 4 6 13 17 18 20 
 8 
 4 9 11 14 17 20 26 29 
 18 
 1 2 4 5 7 8 12 13 14 16 19 20 
 21 22 25 26 27 28 
 15 
 1 2 3 5 8 10 11 15 17 18 20 22 
 25 26 29 
 20 
 4 6 7 8 9 11 14 16 18 19 20 21 
 22 23 24 25 26 27 28 29 
 18 
 2 3 6 7 9 10 12 14 15 19 20 21 
 22 23 24 25 26 28 
 25 
 1 2 3 4 5 6 7 8 9 11 12 13 
 14 15 16 17 18 19 20 22 23 24 27 28 
 29 
 18 
 3 4 5 7 8 9 10 12 13 14 17 18 
 19 21 23 25 26 29 
 20 
 1 2 3 5 7 8 11 12 13 14 16 17 
 18 19 20 21 24 25 28 29 
 19 
 1 4 6 7 8 9 12 14 15 16 17 18 
 19 20 21 22 23 24 27 
 14 
 4 5 6 8 9 10 11 15 16 17 19 26 
 27 28 
 7 
 1 9 13 15 20 23 25 
 25 
 1 2 3 4 5 6 7 8 9 10 11 13 
 14 15 16 17 19 20 22 23 24 25 26 27 
 29 
 26 
 1 2 3 5 6 8 9 11 12 13 14 15 
 16 17 18 19 20 21 22 23 24 25 26 27 
 28 29 
 4 
 7 10 16 20 
 15 
 1 3 5 7 8 9 12 17 18 20 22 25 
 26 27 29 
 20 
 1 3 4 5 6 7 8 9 11 12 13 16 
 17 18 22 24 25 26 27 28 
 8 
 3 12 14 23 24 25 27 29 
 19 
 1 2 4 5 6 8 9 11 12 14 15 16 
 18 19 21 22 24 25 29 
 25 
 1 2 3 5 6 7 8 11 12 13 14 15 
 16 17 18 19 20 21 22 23 24 25 26 27 
 28 
 18 
 1 5 6 9 10 14 15 16 17 18 19 20 
 22 23 24 25 26 28 
 20 
 1 2 4 5 6 9 10 11 13 16 17 18 
 20 21 23 24 26 27 28 29 
 18 
 2 3 4 5 7 8 10 12 13 15 16 22 
 23 24 25 26 28 29 
 26 
 1 2 3 4 5 6 7 8 9 10 11 12 
 13 14 16 17 18 19 20 21 22 23 24 26 
 27 28 
 12 
 2 4 7 9 10 11 14 15 16 19 24 27 
 29 
 1 2 3 4 5 6 7 8 9 10 11 12 
 13 14 15 16 17 18 19 20 21 22 23 24 
 25 26 27 28 29 
 6 
 1 4 5 21 23 24 
 29 
 1 2 3 4 5 6 7 8 9 10 11 12 
 13 14 15 16 17 18 19 20 21 22 23 24 
 25 26 27 28 29 
 6 
 7 9 16 23 24 25 
 27 
 1 2 3 4 5 6 7 8 9 10 11 12 
 13 14 15 16 18 19 20 21 22 23 24 25 
 27 28 29 
 20 
 2 3 5 6 7 12 13 14 15 16 17 19 
 20 21 22 25 26 27 28 29 
 20 
 2 4 5 8 9 10 11 12 14 16 17 19 
 20 21 23 24 25 27 28 29 
 25 
 1 2 3 5 6 7 8 9 10 11 12 13 
 14 16 18 19 20 21 22 23 24 25 26 27 
 28 
 5 
 4 7 12 25 26 
 21 
 1 3 5 7 8 9 11 12 13 15 16 17 
 18 20 22 23 24 25 26 27 28 
 16 
 2 3 5 6 7 8 10 11 12 13 16 18 
 19 21 22 28 
 7 
 5 8 9 12 14 17 29 
 7 
 2 9 12 14 16 18 25 
 28 
 1 2 4 5 6 7 8 9 10 11 12 13 
 14 15 16 17 18 19 20 21 22 23 24 25 
 26 27 28 29 
 11 
 1 5 7 9 11 20 21 23 24 25 28 
 22 
 3 4 5 6 7 8 9 11 13 14 16 18 
 20 21 22 23 24 25 26 27 28 29 
 19 
 1 3 5 6 7 9 11 12 14 16 17 18 
 20 21 22 23 26 27 28 
 23 
 1 2 3 5 6 8 9 11 12 13 14 15 
 16 17 18 19 20 22 23 25 26 28 29 
 22 
 3 5 6 7 8 9 10 11 12 15 16 18 
 19 20 21 22 23 24 25 26 27 28 
 21 
 1 2 4 5 6 8 9 10 11 12 13 14 
 15 16 17 20 21 23 25 26 27 
 21 
 1 2 4 5 6 8 9 10 11 14 15 16 
 18 21 23 24 25 26 27 28 29 
 15 
 5 8 10 11 12 15 16 19 20 21 24 25 
 27 28 29 
 7 
 2 5 9 20 21 27 29 
 9 
 1 6 8 14 15 17 19 21 28 
 6 
 2 7 10 15 18 20 
 4 
 9 11 14 27 
 19 
 3 5 7 9 10 14 15 16 17 18 19 20 
 22 23 24 25 26 27 29 
 22 
 2 3 5 6 7 8 9 10 11 12 13 14 
 15 16 17 19 22 23 25 27 28 29 
 15 
 4 5 6 7 8 10 13 16 17 18 19 21 
 23 28 29 
 21 
 1 3 4 6 8 9 10 11 12 14 17 18 
 21 22 23 24 25 26 27 28 29 
 20 
 1 5 6 8 10 11 12 13 14 15 16 17 
 18 20 21 22 24 26 27 28 
 24 
 2 3 4 5 6 8 9 10 11 12 13 14 
 15 16 18 19 22 23 24 25 26 27 28 29 
 4 
 4 17 25 27 
 10 
 4 5 11 12 14 16 22 27 28 29 
 10 
 1 6 7 13 15 16 17 20 26 27 
 7 
 2 4 5 14 22 23 25 
 4 
 9 10 26 27 
 3 
 14 18 19 
 22 
 1 2 3 4 5 7 8 9 10 12 13 16 
 17 18 19 21 22 23 24 25 26 28 
 20 
 1 4 5 6 7 8 9 10 11 12 16 17 
 18 22 23 24 25 26 28 29 
 8 
 6 10 12 13 15 17 21 22 
 10 
 1 5 7 8 9 11 17 18 27 29 
 3 
 1 16 23 
 21 
 1 4 5 6 7 8 9 12 13 14 15 18 
 20 21 22 23 24 25 26 28 29 
 23 
 1 2 4 6 8 10 11 12 13 14 15 17 
 18 19 20 21 22 23 24 25 26 27 28 
 8 
 1 6 7 9 10 19 22 29 
 18 
 2 3 4 5 6 8 9 14 15 16 18 20 
 21 22 23 25 26 27 
 26 
 1 2 3 4 5 6 7 8 9 10 11 12 
 13 14 15 16 19 20 21 22 23 24 25 26 
 28 29 
 28 
 1 2 3 5 6 7 8 9 10 11 12 13 
 14 15 16 17 18 19 20 21 22 23 24 25 
 26 27 28 29 
 16 
 1 2 4 5 8 11 13 15 18 20 23 24 
 25 27 28 29 
 19 
 1 3 4 9 10 11 12 14 15 16 18 19 
 20 22 23 24 25 26 27 
 5 
 2 5 6 21 26 
 9 
 3 11 13 16 17 19 21 23 25 
 22 
 3 4 5 6 7 8 9 10 11 13 14 15 
 16 17 18 20 21 23 24 25 27 29 
 23 
 2 3 4 5 6 7 8 9 10 12 13 14 
 15 16 17 18 21 22 25 26 27 28 29 
 2 
 2 17 
 8 
 1 4 7 19 21 22 25 26 
 20 
 1 4 5 6 8 11 12 13 14 15 16 17 
 19 20 22 23 24 26 28 29 
 15 
 3 4 7 8 9 10 11 12 13 17 18 19 
 23 24 28 
 14 
 2 3 4 5 8 10 11 12 13 14 20 25 
 26 29 
 3 
 21 24 26 
 9 
 4 7 13 15 16 20 24 26 28 
 22 
 2 3 4 5 6 7 9 11 12 14 15 16 
 17 19 20 21 23 24 25 27 28 29 
 24 
 1 2 4 5 6 7 8 9 10 11 13 14 
 15 16 19 20 21 22 24 25 26 27 28 29 
 28 
 1 2 3 5 6 7 8 9 10 11 12 13 
 14 15 16 17 18 19 20 21 22 23 24 25 
 26 27 28 29 
 10 
 1 6 10 11 12 16 23 26 27 28 
 24 
 1 2 3 4 5 6 7 8 10 11 12 13 
 16 17 18 19 21 23 24 25 26 27 28 29 
 12 
 1 2 3 4 5 13 15 17 19 21 25 27 
 17 
 1 2 3 4 7 8 10 13 14 15 16 17 
 19 20 21 26 29 
 8 
 3 8 11 16 19 21 23 26 
 9 
 2 3 8 9 12 15 16 23 27 
 26 
 1 2 3 4 5 6 8 9 10 11 12 13 
 14 15 16 18 19 20 22 23 24 25 26 27 
 28 29 
 6 
 5 6 15 16 18 27 
 19 
 1 2 5 9 11 12 13 14 15 16 17 19 
 20 22 23 24 27 28 29 
 23 
 2 3 4 5 6 7 8 10 11 13 14 15 
 16 17 19 20 23 24 25 26 27 28 29 
 15 
 1 4 6 8 9 10 13 15 17 18 19 24 
 25 26 28 
 8 
 1 5 6 7 10 11 14 18 
 13 
 1 2 5 8 9 10 12 15 17 20 24 26 
 29 
 29 
 1 2 3 4 5 6 7 8 9 10 11 12 
 13 14 15 16 17 18 19 20 21 22 23 24 
 25 26 27 28 29 
 12 
 4 8 13 14 15 19 20 21 22 23 26 28 
 19 
 2 3 4 5 7 8 10 13 15 16 18 19 
 20 22 24 25 27 28 29 
 26 
 1 2 3 4 5 6 7 8 9 10 11 12 
 13 14 15 16 18 19 20 21 22 23 24 26 
 27 28 
 16 
 1 2 3 6 8 9 11 12 14 16 18 19 
 23 25 26 28 
 22 
 2 4 6 7 9 10 12 14 15 16 17 18 
 19 20 21 22 23 24 25 26 28 29 
 5 
 8 10 18 20 29 
 27 
 1 2 3 5 6 7 8 9 10 11 12 13 
 14 15 16 17 18 20 21 22 23 24 25 26 
 27 28 29 
 13 
 1 3 4 7 10 12 13 20 21 23 25 26 
 29 
 19 
 2 3 4 5 6 7 9 10 12 13 14 16 
 17 19 21 24 25 28 29 
 19 
 1 4 7 9 11 12 14 15 16 18 19 20 
 21 22 23 24 27 28 29 
 4 
 4 17 18 28 
 14 
 1 2 3 5 11 12 16 17 18 20 21 22 
 26 29 
 6 
 3 7 11 15 25 27 
 3 
 8 16 25 
 5 
 2 7 12 25 28 
 25 
 2 3 4 5 6 7 8 9 10 11 13 14 
 15 16 17 18 19 20 21 22 23 25 26 27 
 29 
 6 
 6 7 9 14 26 28 
 23 
 1 2 3 5 7 8 9 10 12 14 15 16 
 18 19 20 21 23 24 25 26 27 28 29 
 21 
 1 2 3 6 8 9 10 12 13 14 15 16 
 17 19 22 23 25 26 27 28 29 
 20 
 2 3 5 6 7 10 11 12 13 14 15 17 
 18 19 20 22 23 24 25 27 
 3 
 8 18 22 
 13 
 1 2 3 4 5 6 7 11 15 16 21 25 
 28 
 11 
 1 5 6 8 11 12 16 17 20 26 28 
 15 
 1 2 3 4 7 10 11 13 18 19 20 21 
 23 26 28 
 3 
 15 21 27 
 7 
 2 3 4 5 23 27 28 
 29 
 1 2 3 4 5 6 7 8 9 10 11 12 
 13 14 15 16 17 18 19 20 21 22 23 24 
 25 26 27 28 29 
 13 
 1 3 4 7 8 10 11 13 17 19 21 28 
 29 
 24 
 1 2 4 5 7 8 9 10 11 12 13 14 
 15 16 17 18 20 21 24 25 26 27 28 29 
 22 
 2 3 5 6 7 8 9 10 11 12 13 14 
 15 17 18 21 22 23 25 27 28 29 
 24 
 1 2 3 5 6 8 9 10 12 13 15 16 
 17 18 19 20 21 22 24 25 26 27 28 29 
 26 
 2 4 5 6 8 9 10 11 12 13 14 15 
 16 17 18 19 20 21 22 23 24 25 26 27 
 28 29 
 27 
 1 2 3 4 6 7 8 9 10 12 13 14 
 15 16 17 18 19 20 21 22 23 24 25 26 
 27 28 29 
 17 
 2 3 8 9 10 11 13 15 16 17 20 22 
 23 25 27 28 29 
 8 
 7 9 13 16 24 25 28 29 
 17 
 1 4 5 6 7 8 10 13 15 16 18 19 
 20 24 26 27 29 
 13 
 2 5 7 9 14 15 17 18 20 21 22 24 
 29 
 7 
 11 16 17 18 22 25 29 
 22 
 1 4 6 7 8 9 11 12 13 14 16 17 
 18 19 20 21 22 23 25 26 27 29 
 17 
 1 2 3 4 5 9 12 13 14 15 18 19 
 22 24 25 27 29 
 14 
 3 8 10 11 13 14 15 18 20 21 22 23 
 25 28 
 29 
 1 2 3 4 5 6 7 8 9 10 11 12 
 13 14 15 16 17 18 19 20 21 22 23 24 
 25 26 27 28 29 
 28 
 1 2 3 4 5 6 7 8 9 10 11 12 
 13 14 15 16 17 18 19 20 21 22 23 24 
 25 26 28 29 
 21 
 4 5 7 10 11 12 13 14 15 16 17 18 
 20 21 22 23 24 26 27 28 29 
 3 
 8 21 26 
 3 
 1 17 22 
 20 
 1 4 5 6 8 9 10 11 12 13 14 15 
 16 17 19 20 22 24 28 29 
 17 
 3 5 6 7 9 10 11 12 14 16 17 19 
 20 22 25 26 29 
 23 
 1 2 3 4 5 6 7 9 10 11 13 14 
 16 18 21 22 23 24 25 26 27 28 29 
 10 
 1 5 7 9 10 12 15 16 20 26 
 14 
 5 7 8 10 11 15 17 18 19 21 24 27 
 28 29 
 25 
 1 2 3 5 6 8 9 10 11 12 13 14 
 15 16 17 18 20 22 23 24 25 26 27 28 
 29 
 10 
 1 2 5 7 12 15 22 23 27 28 
 23 
 1 2 3 7 8 9 10 11 12 13 15 16 
 17 19 20 21 22 23 24 25 26 28 29 
 15 
 4 6 7 9 11 12 15 16 18 20 21 22 
 23 24 26 
 19 
 1 4 5 7 8 9 10 12 14 15 16 20 
 21 22 23 24 26 28 29 
 20 
 1 2 4 6 7 10 11 12 13 14 15 17 
 18 19 20 24 25 26 27 28 
 15 
 3 6 7 11 12 13 14 17 18 23 24 25 
 26 28 29 
 28 
 1 2 3 4 5 6 7 8 9 10 11 12 
 13 14 15 16 17 18 20 21 22 23 24 25 
 26 27 28 29 
 21 
 3 4 5 6 7 8 10 11 12 13 14 15 
 16 17 19 21 22 23 25 26 29 
 7 
 1 7 12 14 21 22 26 
 25 
 1 2 3 4 5 6 7 9 10 11 12 13 
 14 15 16 17 18 19 20 22 23 25 26 28 
 29 
 10 
 1 4 5 6 7 8 22 24 27 28 
 13 
 1 2 6 8 9 10 12 18 20 21 23 27 
 29 
 22 
 1 2 3 4 5 7 8 9 10 11 13 14 
 15 17 19 20 21 22 23 24 28 29 
 7 
 5 9 12 13 16 21 27 
 26 
 1 2 3 4 5 6 7 8 9 10 11 12 
 13 14 15 16 17 19 20 21 22 23 25 26 
 28 29 
 10 
 1 4 6 10 11 14 15 17 19 22 
 11 
 1 2 7 8 11 12 18 19 21 22 27 
 12 
 4 5 6 8 9 10 13 17 19 20 28 29 
 12 
 1 2 3 8 9 13 14 16 17 19 27 28 
 28 
 1 2 3 4 5 6 8 9 10 11 12 13 
 14 15 16 17 18 19 20 21 22 23 24 25 
 26 27 28 29 
 13 
 1 4 6 7 12 14 15 16 17 21 25 27 
 28 
 7 
 3 10 12 14 16 21 29 
 27 
 1 2 3 4 5 6 7 8 9 10 11 12 
 13 14 15 16 17 19 20 21 22 23 24 25 
 26 27 28 
 26 
 1 3 4 5 6 7 8 9 10 11 12 13 
 14 15 17 18 19 20 21 22 23 24 25 27 
 28 29 
 18 
 1 2 5 6 8 9 10 11 12 15 16 20 
 21 23 25 27 28 29 
 28 
 2 3 4 5 6 7 8 9 10 11 12 13 
 14 15 16 17 18 19 20 21 22 23 24 25 
 26 27 28 29 
 17 
 1 3 4 6 7 8 10 11 12 15 19 20 
 21 22 25 27 29 
 5 
 2 16 18 20 27 
 16 
 2 4 5 6 8 9 14 16 19 20 22 24 
 25 26 28 29 
 12 
 2 3 5 9 12 14 15 18 21 22 23 25 
 